(synth-fun lemma ((x Int) (k Int) (nil Int)) Bool
           ((Start Bool) (S (Set Int)) (I Int) (Loc Int))

           ((Start Bool (
                  (=> Start Start)
                  (<= I I)
                  (member k S)))
           (S (Set Int) (
              (keys Loc)))
           (I Int (k
              (key Loc)))
           (Loc Int (x nil)))

)

(synth-fun rswitch () Int
           ((Start Int))
           ((Start Int (0)))
)
